13
NiCl3_aq3_fac
Ni     -0.01539002     0.00015620     0.03524933
Cl      2.38150984     0.02575098    -0.03601245
O      -2.09341244     0.03998430    -0.00264500
H      -2.67441239     0.18444481    -0.78395368
H      -2.74066058    -0.14840611     0.72028726
Cl      0.00263615     2.33613285    -0.00994294
O      -0.01422324    -2.08258462     0.02261274
H      -0.52604311    -2.67204860     0.50258261
H       0.52141225    -2.72156623    -0.48489282
Cl      0.00095454     0.00359075     2.34620935
O       0.02183116     0.00256970    -2.13684106
H       0.73691635     0.12065024    -2.69943127
H      -0.75314070    -0.16101206    -2.72943480
