22

C     -0.686261   -0.085355    1.108129
N     -0.036474   -0.303586   -0.258289
C      1.443686   -0.611483   -0.037755
C     -0.704623   -1.490338   -0.932040
C     -0.224706    0.997711   -1.081270
C      0.420750    0.986083   -2.477864
O      1.839767    0.955734   -2.382216
Cl    -4.905593    2.136286    0.680942
H     -1.745638    0.140783    0.954477
H     -0.575278   -1.000004    1.698389
H     -0.181871    0.750403    1.602237
H      1.518884   -1.399591    0.718392
H      1.877869   -0.976483   -0.971141
H      1.941103    0.296652    0.313890
H     -0.188641   -1.705884   -1.870759
H     -0.631399   -2.353972   -0.263892
H     -1.752963   -1.238831   -1.116596
H      0.209302    1.804149   -0.478489
H     -1.305358    1.156534   -1.169990
H      0.085460    0.138613   -3.080853
H      0.142624    1.906605   -3.001965
H      2.198587    1.114400   -3.277052
