22

C      0.996038   -1.094341   -1.883151
N      0.337878   -0.689627   -0.564070
C      0.914237    0.659962   -0.138942
C      0.670066   -1.734887    0.487511
C     -1.190739   -0.596919   -0.810722
C     -2.021311   -0.141823    0.401821
O     -1.740228    1.213220    0.731263
Cl    -4.697897   -2.163884   -2.820985
H      2.075376   -1.178505   -1.724240
H      0.582069   -2.058175   -2.194086
H      0.779799   -0.323746   -2.629119
H      0.549211    1.428175   -0.826251
H      2.005914    0.595795   -0.190415
H      0.621941    0.866681    0.892939
H      1.758485   -1.831988    0.547206
H      0.275687   -1.408911    1.452962
H      0.218455   -2.684568    0.186698
H     -1.322921    0.110575   -1.637783
H     -1.515043   -1.592602   -1.133749
H     -3.084003   -0.207927    0.145480
H     -1.845535   -0.766716    1.280928
H     -2.401954    1.499177    1.390815
