22

C     -1.693195   -1.215717   -0.457048
N     -0.373107   -0.569224   -0.841959
C      0.023220    0.450726    0.224316
C      0.706580   -1.650316   -0.891564
C     -0.448286    0.084512   -2.246622
C     -1.450319    1.245102   -2.373834
O     -1.033294    2.364249   -1.600995
Cl    -4.877270   -0.722828   -1.614775
H     -2.450568   -0.437572   -0.335523
H     -1.555148   -1.747419    0.489464
H     -1.980600   -1.914056   -1.248285
H     -0.825119    1.108635    0.425376
H      0.894156    1.008064   -0.131539
H      0.272569   -0.093731    1.140787
H      0.763895   -2.132766    0.088876
H      1.660918   -1.175926   -1.139029
H      0.429287   -2.380263   -1.657927
H      0.563833    0.441779   -2.470288
H     -0.710883   -0.714985   -2.948583
H     -2.458649    0.955716   -2.067654
H     -1.491476    1.561508   -3.421493
H     -1.605551    3.118466   -1.842531
