22

C     -1.658923    0.968988    1.137386
N     -0.588574    0.302975    0.274199
C      0.349877   -0.475947    1.195900
C      0.214163    1.371198   -0.449165
C     -1.215979   -0.708200   -0.720786
C     -2.241495   -0.110310   -1.699594
O     -3.410371    0.319452   -1.012053
Cl    -4.660134    0.690631   -2.548608
H     -2.317456    0.193391    1.538099
H     -1.157540    1.497289    1.954724
H     -2.207626    1.694824    0.533205
H      0.813138    0.225020    1.896858
H      1.115131   -0.959057    0.581069
H     -0.237672   -1.223511    1.737176
H     -0.464499    1.987123   -1.044097
H      0.716513    1.992410    0.298757
H      0.949524    0.876993   -1.090523
H     -1.694727   -1.480846   -0.107704
H     -0.384098   -1.154657   -1.277159
H     -1.831266    0.729624   -2.265671
H     -2.541460   -0.885730   -2.412432
H     -4.085310    0.534677   -1.684955
