22
choline chloride ion pair, Cl- H-bonded to hydroxyl (O...Cl=3.10 A)
C -0.210272 -0.076086 1.593554
N -0.525848 -0.215479 0.113784
C -1.623336 -1.265859 -0.056987
C -1.053097 1.115089 -0.420919
C 0.711971 -0.694507 -0.688987
C 1.909012 0.272064 -0.681561
O 1.601859 1.467640 -1.388621
H 0.200944 -1.024537 1.950874
H -1.137341 0.161847 2.124193
H 0.510973 0.733149 1.730805
H -1.247880 -2.221886 0.319936
H -2.501199 -0.950824 0.515217
H -1.868743 -1.340920 -1.120560
H -1.140472 1.044818 -1.508676
H -2.036168 1.296278 0.025479
H -0.376121 1.917350 -0.119205
H 1.007203 -1.658787 -0.260149
H 0.365991 -0.848961 -1.717818
H 2.752013 -0.207564 -1.190188
H 2.226623 0.528485 0.332140
H 2.433889 1.968690 -1.495094
Cl 4.241688 3.057352 -1.726433
