22

C     -1.721564    0.859612    1.072729
N     -0.237560    0.580691    0.834232
C      0.577094    1.685873    1.485120
C      0.106486   -0.756643    1.488051
C     -0.008901    0.533446   -0.699257
C      1.429332    0.203619   -1.135056
O      1.770831   -1.133970   -0.791670
Cl    -4.641252    2.117888    2.587581
H     -2.302839    0.045810    0.629003
H     -1.899062    0.910483    2.151252
H     -1.973532    1.814254    0.601351
H      0.301467    1.741960    2.542726
H      1.639684    1.448455    1.393333
H      0.347139    2.628715    0.980634
H     -0.273106   -0.741692    2.514800
H     -0.374859   -1.557593    0.920095
H      1.191973   -0.874563    1.515648
H     -0.697560   -0.226927   -1.086079
H     -0.301721    1.515221   -1.088202
H      1.496801    0.294620   -2.224351
H      2.161318    0.883714   -0.692465
H      2.618893   -1.342952   -1.229592
