19
Co_aq6
Co     -0.01740998     0.00967750    -0.00578351
O       2.07391265    -0.03561051     0.00897113
H       2.68953746    -0.55769143     0.50469562
H       2.71326964     0.55853332    -0.57218942
O      -2.04084783    -0.02896426    -0.02948712
H      -2.70540605     0.68630906     0.22677267
H      -2.67166369    -0.75993490    -0.22356891
O      -0.03318939     2.09059055    -0.03732370
H       0.04340010     2.64943428     0.79031983
H      -0.05324781     2.70697151    -0.80285244
O       0.02134461    -2.04252037    -0.00154520
H      -0.02325908    -2.69212931     0.78306151
H       0.03883791    -2.68587619    -0.73476498
O       0.03913523    -0.02791958     2.04630945
H      -0.13085485     0.75654050     2.65968270
H       0.10888056    -0.79464669     2.69731243
O       0.02508451    -0.03898893    -2.11081518
H      -0.31173000     0.68687277    -2.65288061
H       0.32848686    -0.70760068    -2.68272343
