15
CoCl2_aq4
Co      0.03734873     0.00282111     0.02081890
Cl      2.41781785     0.01794988    -0.00378150
Cl     -2.48491025     0.00831050     0.00508009
O       0.03060312     2.06310776    -0.03743318
H      -0.68553984     2.67848424    -0.29316944
H       0.72832969     2.69027204     0.28856409
O      -0.01121108    -2.08758716    -0.02302025
H      -0.65759202    -2.65997328    -0.46966403
H       0.61505395    -2.67069110     0.41413637
O      -0.00151537     0.03458015     2.11390514
H      -0.77260643     0.15083106     2.67902902
H       0.76298788    -0.16307826     2.70685509
O       0.00393350    -0.02827238    -2.05413420
H      -0.51232024     0.54794183    -2.70935220
H       0.50425815    -0.59025062    -2.64648171
