21
Coordinates from ORCA-job H3Cit_opt_run E -760.032036383415
  O          -3.35129397011627     -0.30802725911297     -0.30122542239508
  C          -2.41390438774568      0.33898826866481      0.41527504981652
  O          -2.48529987462809      1.52466115635397      0.68366737218935
  C          -1.28624021118211     -0.56696308521016      0.83868258184374
  C          -0.03347927710549     -0.35644098124609     -0.04232053678439
  O          -0.44230131021860     -0.57321612276171     -1.38385287296547
  C           0.97879453764854     -1.40938350773266      0.44309842541275
  O           1.66162125674997     -1.25462099550024      1.43764766447796
  O           0.97762966703559     -2.52311171988423     -0.29795606508792
  C           0.56807467402552      1.03958663491960      0.14632948451303
  C           1.87153817670997      1.18366746647642     -0.58382506992021
  O           2.36380247685469      0.31915717682851     -1.29189846527216
  O           2.44193468564675      2.38060213297935     -0.38051587708485
  H          -4.04317134625858      0.33016930883711     -0.55191237298034
  H          -1.59900916669511     -1.61153635976447      0.76285166888267
  H          -1.02973440747906     -0.33636964704682      1.87605339154440
  H           0.34423122407844     -0.50532177512263     -1.94694494168203
  H           1.60342889939737     -3.15510184801896      0.09972196057364
  H          -0.12586883664539      1.79466043802957     -0.23903983997875
  H           0.72795609928610      1.26637856172714      1.20534302356338
  H           3.27129109064147      2.42222214658447     -0.88917917866623
