34
Coordinates from ORCA-job NiCit_aq4_opt_run E -2573.900353265657
  Ni          0.00789562671518     -0.01755183696417      0.04024729195133
  O           2.04764558748691     -2.68069555909895     -2.80083458259477
  C           1.39885076892044     -2.29683635174877     -3.92229839039761
  O           1.54594314489119     -2.84370869575448     -4.99368061185333
  C           0.51268943337215     -1.10240203755076     -3.67041645365830
  C          -0.56675421147008     -1.34412407361751     -2.59209123897857
  O           0.00800315534917     -1.60360836797882     -1.30081305031448
  C          -1.32850410750029     -0.02817316158808     -2.43526821320333
  O          -1.19336121506792      0.71573892708612     -1.46614317139133
  O          -2.11653413552399      0.23546830629113     -3.45107565309254
  C          -1.52847617359722     -2.51510032610798     -2.88259786158866
  C          -2.26374244985081     -2.46528610037227     -4.19946069095700
  O          -1.73227277047616     -2.40228417651868     -5.29154572146972
  O          -3.59521619992743     -2.55469763247734     -4.03218517135300
  H           2.57752394095116     -3.47724033954955     -2.98577127292060
  H           1.14833088310172     -0.27019983918444     -3.34142809755014
  H           0.03285496244629     -0.82779501951968     -4.60931647888956
  H           0.85157581665022     -2.08006065168311     -1.41714717229375
  H          -2.56081919682839      1.09523656418679     -3.32290764081888
  H          -2.23699506268976     -2.58187468367073     -2.05381114353018
  H          -0.92640877429133     -3.43278370514667     -2.89242040291219
  H          -4.01693074763346     -2.56377368554866     -4.91059931992281
  O           1.12661842327775     -0.99326590089870      1.46892838348349
  H           1.71616520426526     -1.63881263946504      1.05127821330341
  H           1.72619287153910     -0.37354410767598      1.91104820303234
  O          -0.10012198956559      1.68673254990972      1.19245563067179
  H          -0.27364718262250      1.45977739795931      2.11830409643548
  H          -0.86402669182923      2.22165937135637      0.92897823269245
  O          -1.71595286234265     -0.79474847599515      0.90915006313706
  H          -1.57515271724003     -0.93740116461752      1.85687100964917
  H          -2.43296960957282     -0.14436729438965      0.86676593321293
  O           1.70606783762479      0.76341424641930     -0.86401070906686
  H           2.28668633150082      1.16307773433927     -0.19919863624259
  H           2.23606072993757      0.05278747957485     -1.25582394256905
