19
Ni_aq6  charge=+2  mult=3  Oh(팔면체)  |  freq 합격  |  r2SCAN-3c/CPCM(SMD water) 최적화 완료
  Ni          0.00095857815042     -0.00694664632374      0.00910287427392
  O           2.07538265401223     -0.07990609729110     -0.05331173628352
  H           2.46519331032421      0.54769533137438      0.57292928969096
  H           2.39820987732128     -0.94596851572892      0.23561540062565
  O          -2.07370800698316      0.06539187970246      0.07137212765926
  H          -2.39683847632684      0.93142084282920     -0.21730582981770
  H          -2.46317768675922     -0.56213364036371     -0.55515151796162
  O           0.11963689871894      2.06424675059163      0.10765477241207
  H          -0.33535356433019      2.47251097853482     -0.64341347782155
  H          -0.34677116118499      2.39935407073457      0.88755121133061
  O          -0.11739187458303     -2.07803157171741     -0.08977727961375
  H           0.34951492862760     -2.41282762930604     -0.86951159786640
  H           0.33722261204917     -2.48640441928416      0.66145920286662
  O           0.03159694194254     -0.13028732004388      2.08172046799055
  H           0.81473856534454      0.31360559922419      2.43896556044332
  H          -0.71743330530081      0.34647490379391      2.46838987493259
  O          -0.03006740120198      0.11623233785152     -2.06354912112398
  H          -0.81105794340853     -0.33149836755686     -2.42072671028420
  H           0.72127345358783     -0.35674961702088     -2.45035503145282
17
NiCl1_aq5  charge=+1  mult=3  Oh(팔면체)  |  허수 28 cm-1 (50 이하: 물 회전, 무시 가능)  |  r2SCAN-3c/CPCM(SMD water) 최적화 완료
  Ni         -0.05425110146482      0.04190594382244     -0.00379726797031
  Cl          2.29362324597267     -0.04512493828166      0.01132018879989
  O          -2.14834488641250      0.15754910802389     -0.01530278781562
  H          -2.51740177697243     -0.25230594882804      0.78038537975709
  H          -2.51357140911080     -0.36376556086632     -0.74490963998313
  O          -0.02666222567948      2.11982668202806     -0.27440979562946
  H          -0.61678482489413      2.55557016917236      0.35766016714926
  H           0.85858964785533      2.43933422160078     -0.04437635419960
  O          -0.20983274947793     -2.03327186659573      0.26545223161602
  H          -0.75021659712076     -2.42361666494727     -0.43726534337012
  H           0.67022974224138     -2.41792519656582      0.13753075682330
  O          -0.12420493032086      0.30965786486533      2.07463824966595
  H          -0.64125333095562     -0.39629999832926      2.48993896664452
  H           0.77644812817163      0.17706977020902      2.40713503822153
  O          -0.12723057404323     -0.22780263125061     -2.08286146605420
  H          -0.61440508344107      0.49575843185898     -2.50361934852528
  H           0.77756720565263     -0.13655938591613     -2.41751897512985
15
NiCl2_aq4  charge=+0  mult=3  Oh(팔면체)  |  freq 합격  |  r2SCAN-3c/CPCM(SMD water) 최적화 완료
  Ni         -0.00302945982762      0.00378139783300      0.00348529763904
  Cl          2.37066485894245     -0.01569141374370     -0.02160405496145
  Cl         -2.37695600742123      0.02323615649088      0.02832659822727
  O           0.02375054332287      2.08861457442185      0.33911590169347
  H          -0.73235528183380      2.47820895984624     -0.12390450317468
  H           0.80453170119597      2.44954013181877     -0.10614275674175
  O          -0.03015840571890     -2.08117163159862     -0.33200831171083
  H          -0.81221700192394     -2.44144210927306      0.11154518405413
  H           0.72459190209488     -2.47123834534060      0.13281211509583
  O           0.01154771784892     -0.33206396451923      2.08857673874617
  H          -0.75444640765172      0.12388837292235      2.46732100290978
  H           0.78277117669952      0.12023616241790      2.46079042802463
  O          -0.01865024459947      0.33968622302836     -2.08157932812927
  H           0.74434001346641     -0.12003180387544     -2.46180430328450
  H          -0.79283664459433     -0.10887791042869     -2.45219161838781
7
NiCl3_aq1  charge=-1  mult=3  Td(사면체)  |  freq 합격  |  r2SCAN-3c/CPCM(SMD water) 최적화 완료
  Ni          0.17910695613964     -0.02659007486358      0.00551128803985
  Cl          1.10000947230607      1.36834290078122      1.53137184056792
  Cl          1.05336643521372     -1.59525582619480     -1.37123062451322
  Cl         -1.47289430462561      1.08271050419544     -1.09643536837259
  O          -0.87448022729132     -1.23794788373399      1.26599085274660
  H          -1.47129656369396     -1.81748261643705      0.76949659313506
  H          -1.45697110804854     -0.71693634374723      1.83845475839638
5
NiCl4  charge=-2  mult=3  Td(사면체)  |  freq 합격  |  r2SCAN-3c/CPCM(SMD water) 최적화 완료
  Ni         -0.04997611845374      0.04997734399255     -0.04997877813399
  Cl          1.33701849982711      1.23571149619447      1.33701648359883
  Cl          1.33702013793186     -1.33701919596952     -1.23570961994117
  Cl         -1.38834939724642      1.38834652214318     -1.38834317761839
  Cl         -1.23571312205880     -1.33701616636069      1.33701509209473
19
Co_aq6  charge=+2  mult=4  Oh(팔면체)  |  허수 142 cm-1 ** 안장점 — 구조 인용 시 명시 **  |  r2SCAN-3c/CPCM(SMD water) 최적화 완료
  Co         -0.00079679081665     -0.04837778329201     -0.05519968589731
  O           2.10249951899878     -0.16899208927193      0.07760929193871
  H           2.51484702983705     -0.46742577234294     -0.74563811371083
  H           2.51548555734483      0.68601679990216      0.26549557097047
  O          -2.10476274843408      0.07198368005643     -0.18611743892901
  H          -2.52140342377149      0.27392940781870      0.66393668537714
  H          -2.51016906640841     -0.76036912095430     -0.46859773539159
  O           0.06941320416738      2.05520993421949     -0.08911402851538
  H           0.32087345282331      2.44828347085791      0.75893480478317
  H          -0.77714663692810      2.46642428700180     -0.31532023069929
  O           0.01840960117535     -2.15759754146918     -0.09373172004580
  H          -0.84310024120848     -2.53971413794909     -0.31438786419698
  H           0.24879876247854     -2.54442138013086      0.76303084389583
  O          -0.07796553914119     -0.03920293817224      2.04934804341037
  H           0.76738790886589     -0.25875895659197      2.46664683768601
  H          -0.32828397268843      0.81698740474274      2.42507129355681
  O          -0.01261488987564     -0.13124854829690     -2.16375752555152
  H          -0.24920775557026      0.71505644064601     -2.56948572832440
  H           0.85205530915158     -0.35217952677384     -2.53849310035640
17
CoCl1_aq5  charge=+1  mult=4  Oh(팔면체)  |  허수 125 cm-1 ** 안장점 — 구조 인용 시 명시 **  |  r2SCAN-3c/CPCM(SMD water) 최적화 완료
  Co         -0.00149848065073     -0.03302738366947      0.05240407744288
  Cl          2.34624915374022      0.04812726264853      0.19160251362248
  O          -2.12396859842499     -0.10763948864269     -0.14637349571612
  H          -2.52663833593334      0.77057262475015     -0.19754098869458
  H          -2.56172687025708     -0.53567653219665      0.60274228823114
  O          -0.13696615867888      2.09866564374433      0.22604303504725
  H          -0.57882088432796      2.49726132546938     -0.53728164800284
  H           0.75889634829483      2.46612389317269      0.21162511586966
  O          -0.11502946048297     -2.16145417259513     -0.02045172181784
  H           0.75958442874142     -2.53990508061714      0.15126944803485
  H          -0.34766996776579     -2.47772723781154     -0.90519540723203
  O          -0.18777470093350     -0.23072781288501      2.18004844356271
  H          -1.07360368455308      0.00030761479393      2.49474736193536
  H           0.40523081711413      0.37897998142255      2.64141353182744
  O          -0.00702856038064      0.18979342860058     -2.07371141287014
  H           0.90343758252555      0.13136354553503     -2.39801460252080
  H          -0.47170672802718     -0.53548919171957     -2.51529301871940
15
CoCl2_aq4  charge=+0  mult=4  Oh(팔면체)  |  freq 합격  |  r2SCAN-3c/CPCM(SMD water) 최적화 완료
  Co         -0.12454113220407      0.13749917345424      0.14873557437051
  Cl          2.28434770474246      0.13349721266793     -0.00302830068577
  Cl         -2.48836480663739      0.08772248458029      0.23442992027127
  O          -0.05200784085548      2.28680815079560      0.11864280959479
  H           0.82920937078737      2.54179810383960     -0.19256679793010
  H          -0.66235140798632      2.64133023476212     -0.54339259278301
  O          -0.07494115150782     -2.03760928567076      0.17794889444949
  H          -0.72590250734210     -2.39383667830558     -0.44338542912524
  H           0.78409944787817     -2.31000169276070     -0.17693201005857
  O           0.07925618555154      0.10567824102981      2.28926251081761
  H          -0.41099139801918     -0.63886214431609      2.66581646106544
  H           1.00902058860429     -0.08601270498560      2.48245013712317
  O          -0.21739747006331      0.16985923013597     -2.02901549179089
  H          -0.89238289119549     -0.45121559996706     -2.33792229768482
  H           0.61837663824731     -0.18199085525977     -2.36835860763390
7
CoCl3_aq1  charge=-1  mult=4  Td(사면체)  |  freq 합격  |  r2SCAN-3c/CPCM(SMD water) 최적화 완료
  Co          0.04338920313941      0.00216378909559      0.01225925292906
  Cl          1.22101646964387      1.33140442447818      1.42817841294230
  Cl          1.30978080768659     -1.41816112490976     -1.22747040809603
  Cl         -1.51657236265487      1.12284350531312     -1.19558863589728
  O          -0.96134202630021     -1.27578469916445      1.30549702289508
  H          -1.54823757143571     -1.88842648081191      0.83870268048490
  H          -1.54077325007907     -0.80087744400076      1.91896118474197
5
CoCl4  charge=-2  mult=4  Td(사면체)  |  freq 합격  |  r2SCAN-3c/CPCM(SMD water) 최적화 완료
  Co         -0.00249532976637     -0.02036389761091      0.01103476524346
  Cl          1.31970008145427      1.32098992109309      1.33981316039881
  Cl          1.33717097768733     -1.35376171442198     -1.30860462787523
  Cl         -1.33260823650333      1.29932248954958     -1.33176918918676
  Cl         -1.33408264287192     -1.34791676860978      1.34405968141974
19
Mn_aq6  charge=+2  mult=6  Oh(팔면체)  |  허수 111 cm-1 ** 안장점 — 구조 인용 시 명시 **  |  r2SCAN-3c/CPCM(SMD water) 최적화 완료
  Mn         -0.00127173612436      0.01583108029264     -0.00835216962884
  O           2.20123108548750     -0.10894860135847      0.03515723208903
  H           2.60110511551688      0.34429374746647      0.79062663575675
  H           2.62426921279047      0.28414935528380     -0.74096703582270
  O          -2.19973611506115     -0.07125657085126      0.15598502088854
  H          -2.59375505742501     -0.83384749089481     -0.29041854939568
  H          -2.64602716122260      0.69693234296382     -0.22684894952514
  O          -0.14671079627598      2.21506248693293     -0.09344866424249
  H           0.24348536913768      2.65820439750544      0.67285675617808
  H           0.29929012670448      2.60523210198388     -0.85827861815815
  O          -0.06729637228158     -2.18612123355021     -0.13106451159711
  H          -0.82220481652596     -2.57890122084585      0.32926447647953
  H           0.70835104461835     -2.61724251555101      0.25413729369747
  O           0.10877809606254      0.15513550368162      2.19033699115908
  H          -0.65729193382017     -0.22649625696233      2.64128330277915
  H           0.87236488979938     -0.30114631828644      2.57095229190581
  O           0.09590026315975      0.08694382842602     -2.21137711251161
  H          -0.37092607773895      0.84252733311887     -2.59516259621181
  H          -0.29282515680124     -0.68777232935514     -2.64098803383990
17
MnCl1_aq5  charge=+1  mult=6  Oh(팔면체)  |  허수 136 cm-1 ** 안장점 — 구조 인용 시 명시 **  |  r2SCAN-3c/CPCM(SMD water) 최적화 완료
  Mn          0.11645692804650     -0.01853364757497      0.01966343471726
  Cl          2.50310012992489     -0.19078300656753      0.09691647726170
  O          -2.13713466266099      0.10923902194479      0.12675911100384
  H          -2.50064821973279     -0.43336409175339      0.84055022856645
  H          -2.54864030253254     -0.24098855911855     -0.67547348388039
  O           0.03214574842142      2.21495764433615      0.13875941969203
  H           0.78278177335494      2.62676178398733     -0.31185112278342
  H          -0.74671325193842      2.57327225160896     -0.30995431124174
  O          -0.23972397857098     -2.20115940343976     -0.31260565309934
  H          -1.01099367644812     -2.52607060702611      0.17312771386403
  H           0.49460003103601     -2.74831784158830     -0.00073737934175
  O          -0.12097175749950     -0.21160095699527      2.23891498028750
  H          -0.83564600034585      0.33729864517039      2.59150916604195
  H           0.66952375214145      0.08417903521257      2.71158648184454
  O          -0.21419447216570      0.23591751302704     -2.18524566536709
  H           0.27235636844817      0.99891960187010     -2.52754565143660
  H           0.12344757052151     -0.51467826309342     -2.69375913612896
15
MnCl2_aq4  charge=+0  mult=6  Oh(팔면체)  |  허수 65 cm-1 ** 안장점 — 구조 인용 시 명시 **  |  r2SCAN-3c/CPCM(SMD water) 최적화 완료
  Mn          0.08279058210953      0.43686464969181      0.53137264668999
  Cl          2.08161041242173      1.06763981302455      1.75313379172934
  Cl         -1.64732768321375      2.08647800123872      0.96132767837757
  O           0.87394094386746      1.43102496093452     -1.36831022458146
  H           0.18954835565893      1.99835415926544     -1.75052325850163
  H           1.58106816310310      2.04300179668214     -1.11983992852514
  O           1.22948830848186     -1.44049076551493     -0.14159466966348
  H           1.22239344542635     -1.53088038899988     -1.10481248133722
  H           2.15729074662201     -1.27457939699846      0.07899368334386
  O          -0.79923799640042     -0.97879215761949      2.06245064154629
  H          -0.72418732691480     -1.89785923182040      1.76992717492694
  H          -1.75197176797078     -0.82559504852414      2.13303180552600
  O          -1.40042535868127     -0.51675775720224     -0.96499291124240
  H          -1.00200871596528     -0.64147213589618     -1.83768200170086
  H          -2.07910395854468      0.15935015173855     -1.10354299658779
7
MnCl3_aq1  charge=-1  mult=6  Td(사면체)  |  freq 합격  |  r2SCAN-3c/CPCM(SMD water) 최적화 완료
  Mn          0.01566014332700      0.01290424713199     -0.06754073989509
  Cl          1.21598239137170      1.15485821046566      1.60381674878501
  Cl          1.27394723720758     -1.51568074956136     -1.33928374814107
  Cl         -1.53944093135481      1.31673534002427     -1.25814733258372
  O          -1.31313792974456     -1.34163928570260      1.01799906767947
  H          -1.93698662043607     -0.88440942673970      1.59969658784511
  H          -0.84066675037084     -1.95422406561825      1.59952249631027
5
MnCl4  charge=-2  mult=6  Td(사면체)  |  freq 합격  |  r2SCAN-3c/CPCM(SMD water) 최적화 완료
  Mn          0.01155702294394      0.01648001889043      0.01066455360232
  Cl          1.40664096653453      1.39799013788494      1.37847573619681
  Cl          1.38006948875580     -1.38539919641280     -1.36343689880110
  Cl         -1.36346581327963      1.39749643722036     -1.37803075140389
  Cl         -1.37693600495463     -1.34454070758293      1.40598688040586
3
H2O  charge=+0  mult=1  -  |  freq 합격  |  r2SCAN-3c/CPCM(SMD water) 최적화 완료
  O          -0.00256545971526      0.00000000000000     -0.00000000000113
  H           0.59513348985719      0.00000000000000     -0.75686919304220
  H           0.59513348985806      0.00000000000000      0.75686919304333
1
Cl_ion  charge=-1  mult=1  -  |  freq 합격  |  r2SCAN-3c/CPCM(SMD water) 최적화 완료
Cl      0.00000000     0.00000000     0.00000000
