19
Ni_aq6  charge=+2  mult=3  Oh(팔면체)  |  freq 합격  |  최적화 전 초기 구조
Ni      0.00000000     0.00000000     0.00000000
O       2.06000000     0.00000000     0.00000000
H       2.65385076     0.00000000    -0.76696889
H       2.65385076     0.00000000     0.76696889
O      -2.06000000     0.00000000     0.00000000
H      -2.65385076     0.00000000     0.76696889
H      -2.65385076     0.00000000    -0.76696889
O       0.00000000     2.06000000     0.00000000
H       0.00000000     2.65385076     0.76696889
H       0.00000000     2.65385076    -0.76696889
O       0.00000000    -2.06000000     0.00000000
H       0.00000000    -2.65385076    -0.76696889
H       0.00000000    -2.65385076     0.76696889
O       0.00000000     0.00000000     2.06000000
H       0.00000000    -0.76696889     2.65385076
H       0.00000000     0.76696889     2.65385076
O       0.00000000     0.00000000    -2.06000000
H       0.00000000     0.76696889    -2.65385076
H       0.00000000    -0.76696889    -2.65385076
17
NiCl1_aq5  charge=+1  mult=3  Oh(팔면체)  |  허수 28 cm-1 (50 이하: 물 회전, 무시 가능)  |  최적화 전 초기 구조
Ni      0.00000000     0.00000000     0.00000000
Cl      2.40000000     0.00000000     0.00000000
O      -2.06000000     0.00000000     0.00000000
H      -2.65385076     0.00000000     0.76696889
H      -2.65385076     0.00000000    -0.76696889
O       0.00000000     2.06000000     0.00000000
H       0.00000000     2.65385076     0.76696889
H       0.00000000     2.65385076    -0.76696889
O       0.00000000    -2.06000000     0.00000000
H       0.00000000    -2.65385076    -0.76696889
H       0.00000000    -2.65385076     0.76696889
O       0.00000000     0.00000000     2.06000000
H       0.00000000    -0.76696889     2.65385076
H       0.00000000     0.76696889     2.65385076
O       0.00000000     0.00000000    -2.06000000
H       0.00000000     0.76696889    -2.65385076
H       0.00000000    -0.76696889    -2.65385076
15
NiCl2_aq4  charge=+0  mult=3  Oh(팔면체)  |  freq 합격  |  최적화 전 초기 구조
Ni      0.00000000     0.00000000     0.00000000
Cl      2.40000000     0.00000000     0.00000000
Cl     -2.40000000     0.00000000     0.00000000
O       0.00000000     2.06000000     0.00000000
H       0.00000000     2.65385076     0.76696889
H       0.00000000     2.65385076    -0.76696889
O       0.00000000    -2.06000000     0.00000000
H       0.00000000    -2.65385076    -0.76696889
H       0.00000000    -2.65385076     0.76696889
O       0.00000000     0.00000000     2.06000000
H       0.00000000    -0.76696889     2.65385076
H       0.00000000     0.76696889     2.65385076
O       0.00000000     0.00000000    -2.06000000
H       0.00000000     0.76696889    -2.65385076
H       0.00000000    -0.76696889    -2.65385076
7
NiCl3_aq1  charge=-1  mult=3  Td(사면체)  |  freq 합격  |  최적화 전 초기 구조
Ni      0.00000000     0.00000000     0.00000000
Cl      1.31058511     1.31058511     1.31058511
Cl      1.31058511    -1.31058511    -1.31058511
Cl     -1.31058511     1.31058511    -1.31058511
O      -1.18934155    -1.18934155     1.18934155
H      -1.53220145    -2.07453035     0.98987255
H      -1.53220145    -0.98987255     2.07453035
5
NiCl4  charge=-2  mult=3  Td(사면체)  |  freq 합격  |  최적화 전 초기 구조
Ni      0.00000000     0.00000000     0.00000000
Cl      1.31058511     1.31058511     1.31058511
Cl      1.31058511    -1.31058511    -1.31058511
Cl     -1.31058511     1.31058511    -1.31058511
Cl     -1.31058511    -1.31058511     1.31058511
19
Co_aq6  charge=+2  mult=4  Oh(팔면체)  |  허수 142 cm-1 ** 안장점 — 구조 인용 시 명시 **  |  최적화 전 초기 구조
Co     -0.01740998     0.00967750    -0.00578351
O       2.07391265    -0.03561051     0.00897113
H       2.68953746    -0.55769143     0.50469562
H       2.71326964     0.55853332    -0.57218942
O      -2.04084783    -0.02896426    -0.02948712
H      -2.70540605     0.68630906     0.22677267
H      -2.67166369    -0.75993490    -0.22356891
O      -0.03318939     2.09059055    -0.03732370
H       0.04340010     2.64943428     0.79031983
H      -0.05324781     2.70697151    -0.80285244
O       0.02134461    -2.04252037    -0.00154520
H      -0.02325908    -2.69212931     0.78306151
H       0.03883791    -2.68587619    -0.73476498
O       0.03913523    -0.02791958     2.04630945
H      -0.13085485     0.75654050     2.65968270
H       0.10888056    -0.79464669     2.69731243
O       0.02508451    -0.03898893    -2.11081518
H      -0.31173000     0.68687277    -2.65288061
H       0.32848686    -0.70760068    -2.68272343
17
CoCl1_aq5  charge=+1  mult=4  Oh(팔면체)  |  허수 125 cm-1 ** 안장점 — 구조 인용 시 명시 **  |  최적화 전 초기 구조
Co     -0.00185251    -0.02310686     0.01550896
Cl      2.44740793     0.01864508    -0.03987343
O      -2.10949557     0.02807735     0.00178900
H      -2.70603069     0.70053940    -0.31197841
H      -2.68526132    -0.67924455     0.28958058
O       0.01330616     2.08307050     0.03212880
H       0.51720820     2.64669168    -0.57122795
H      -0.47954024     2.68152335     0.61202192
O       0.00795452    -2.09535995    -0.00537763
H      -0.53876818    -2.64893829    -0.53169820
H       0.57279019    -2.71375440     0.58052230
O      -0.00398191     0.01516175     2.10667429
H       0.40674198     0.64887010     2.65777303
H      -0.43945824    -0.61944166     2.64926403
O      -0.00048617    -0.02654899    -2.07524624
H      -0.23263325    -0.76418271    -2.68983670
H       0.21193022     0.69464628    -2.66942123
15
CoCl2_aq4  charge=+0  mult=4  Oh(팔면체)  |  freq 합격  |  최적화 전 초기 구조
Co      0.03734873     0.00282111     0.02081890
Cl      2.41781785     0.01794988    -0.00378150
Cl     -2.48491025     0.00831050     0.00508009
O       0.03060312     2.06310776    -0.03743318
H      -0.68553984     2.67848424    -0.29316944
H       0.72832969     2.69027204     0.28856409
O      -0.01121108    -2.08758716    -0.02302025
H      -0.65759202    -2.65997328    -0.46966403
H       0.61505395    -2.67069110     0.41413637
O      -0.00151537     0.03458015     2.11390514
H      -0.77260643     0.15083106     2.67902902
H       0.76298788    -0.16307826     2.70685509
O       0.00393350    -0.02827238    -2.05413420
H      -0.51232024     0.54794183    -2.70935220
H       0.50425815    -0.59025062    -2.64648171
7
CoCl3_aq1  charge=-1  mult=4  Td(사면체)  |  freq 합격  |  최적화 전 초기 구조
Co     -0.02308892    -0.02045268     0.02022554
Cl      1.30594284     1.30727621     1.28902285
Cl      1.28525973    -1.31762326    -1.28974006
Cl     -1.34577803     1.32857258    -1.33691813
O      -1.19238283    -1.17704730     1.19469416
H      -1.40099003    -2.18647180     1.12480881
H      -1.69543686    -0.92937291     2.01119634
5
CoCl4  charge=-2  mult=4  Td(사면체)  |  freq 합격  |  최적화 전 초기 구조
Co      0.03248863    -0.00107901     0.03937974
Cl      1.28206235     1.31596772     1.35355332
Cl      1.33088782    -1.33148005    -1.34155545
Cl     -1.30321192     1.29975827    -1.35579388
Cl     -1.32825938    -1.31328308     1.34746025
19
Mn_aq6  charge=+2  mult=6  Oh(팔면체)  |  허수 111 cm-1 ** 안장점 — 구조 인용 시 명시 **  |  최적화 전 초기 구조
Mn     -0.01740998     0.00967750    -0.00578351
O       2.17391265    -0.03561051     0.00897113
H       2.78953746    -0.55769143     0.50469562
H       2.81326964     0.55853332    -0.57218942
O      -2.14084783    -0.02896426    -0.02948712
H      -2.80540605     0.68630906     0.22677267
H      -2.77166369    -0.75993490    -0.22356891
O      -0.03318939     2.19059055    -0.03732370
H       0.04340010     2.74943428     0.79031983
H      -0.05324781     2.80697151    -0.80285244
O       0.02134461    -2.14252037    -0.00154520
H      -0.02325908    -2.79212931     0.78306151
H       0.03883791    -2.78587619    -0.73476498
O       0.03913523    -0.02791958     2.14630945
H      -0.13085485     0.75654050     2.75968270
H       0.10888056    -0.79464669     2.79731243
O       0.02508451    -0.03898893    -2.21081518
H      -0.31173000     0.68687277    -2.75288061
H       0.32848686    -0.70760068    -2.78272343
17
MnCl1_aq5  charge=+1  mult=6  Oh(팔면체)  |  허수 136 cm-1 ** 안장점 — 구조 인용 시 명시 **  |  최적화 전 초기 구조
Mn     -0.00185251    -0.02310686     0.01550896
Cl      2.49740793     0.01864508    -0.03987343
O      -2.20949557     0.02807735     0.00178900
H      -2.80603069     0.70053940    -0.31197841
H      -2.78526132    -0.67924455     0.28958058
O       0.01330616     2.18307050     0.03212880
H       0.51720820     2.74669168    -0.57122795
H      -0.47954024     2.78152335     0.61202192
O       0.00795452    -2.19535995    -0.00537763
H      -0.53876818    -2.74893829    -0.53169820
H       0.57279019    -2.81375440     0.58052230
O      -0.00398191     0.01516175     2.20667429
H       0.40674198     0.64887010     2.75777303
H      -0.43945824    -0.61944166     2.74926403
O      -0.00048617    -0.02654899    -2.17524624
H      -0.23263325    -0.76418271    -2.78983670
H       0.21193022     0.69464628    -2.76942123
15
MnCl2_aq4  charge=+0  mult=6  Oh(팔면체)  |  허수 65 cm-1 ** 안장점 — 구조 인용 시 명시 **  |  최적화 전 초기 구조
Mn      0.03734873     0.00282111     0.02081890
Cl      2.46781785     0.01794988    -0.00378150
Cl     -2.53491025     0.00831050     0.00508009
O       0.03060312     2.16310776    -0.03743318
H      -0.68553984     2.77848424    -0.29316944
H       0.72832969     2.79027204     0.28856409
O      -0.01121108    -2.18758716    -0.02302025
H      -0.65759202    -2.75997328    -0.46966403
H       0.61505395    -2.77069110     0.41413637
O      -0.00151537     0.03458015     2.21390514
H      -0.77260643     0.15083106     2.77902902
H       0.76298788    -0.16307826     2.80685509
O       0.00393350    -0.02827238    -2.15413420
H      -0.51232024     0.54794183    -2.80935220
H       0.50425815    -0.59025062    -2.74648171
7
MnCl3_aq1  charge=-1  mult=6  Td(사면체)  |  freq 합격  |  최적화 전 초기 구조
Mn     -0.02308892    -0.02045268     0.02022554
Cl      1.35790436     1.35923773     1.34098438
Cl      1.33722125    -1.36958478    -1.34170158
Cl     -1.39773955     1.38053410    -1.38887966
O      -1.25011786    -1.23478233     1.25242919
H      -1.45872506    -2.24420683     1.18254383
H      -1.75317189    -0.98710793     2.06893137
5
MnCl4  charge=-2  mult=6  Td(사면체)  |  freq 합격  |  최적화 전 초기 구조
Mn      0.03248863    -0.00107901     0.03937974
Cl      1.33402388     1.36792925     1.40551485
Cl      1.38284934    -1.38344157    -1.39351698
Cl     -1.35517344     1.35171980    -1.40775540
Cl     -1.38022091    -1.36524461     1.39942178
3
H2O  charge=+0  mult=1  -  |  freq 합격  |  최적화 전 초기 구조
O       0.00000000     0.00000000     0.00000000
H       0.59385076     0.00000000    -0.76696889
H       0.59385076     0.00000000     0.76696889
1
Cl_ion  charge=-1  mult=1  -  |  freq 합격  |  최적화 전 초기 구조
Cl      0.00000000     0.00000000     0.00000000
