189
15 complexes, rows Ni/Co/Mn, cols Cl0-Cl4, 12A grid, r2SCAN-3c/CPCM optimized
Ni      0.00000000     0.00000000     0.00000000
O       2.07442408    -0.07295945    -0.06241461
H       2.46423473     0.55464198     0.56382642
H       2.39725130    -0.93902187     0.22651253
O      -2.07466659     0.07233853     0.06226925
H      -2.39779705     0.93836749    -0.22640870
H      -2.46413626    -0.55518699    -0.56425439
O       0.11867832     2.07119340     0.09855190
H      -0.33631214     2.47945762    -0.65251635
H      -0.34772974     2.40630072     0.87844834
O      -0.11835045    -2.07108493    -0.09888015
H       0.34855635    -2.40588098    -0.87861447
H       0.33626403    -2.47945777     0.65235633
O       0.03063836    -0.12334067     2.07261759
H       0.81377999     0.32055225     2.42986269
H      -0.71839188     0.35342155     2.45928700
O      -0.03102598     0.12317898    -2.07265200
H      -0.81201652    -0.32455172    -2.42982958
H       0.72031488    -0.34980297    -2.45945791
Ni     12.00000000     0.00000000     0.00000000
Cl     14.34787435    -0.08703088     0.01511746
O       9.90590622     0.11564316    -0.01150552
H       9.53684932    -0.29421189     0.78418265
H       9.54067969    -0.40567150    -0.74111237
O      12.02758888     2.07792074    -0.27061253
H      11.43746628     2.51366423     0.36145744
H      12.91284075     2.39742828    -0.04057909
O      11.84441835    -2.07517781     0.26924950
H      11.30403450    -2.46552261    -0.43346808
H      12.72448084    -2.45983114     0.14132802
O      11.93004617     0.26775192     2.07843552
H      11.41299777    -0.43820594     2.49373623
H      12.83069923     0.13516383     2.41093231
O      11.92702053    -0.26970858    -2.07906420
H      11.43984602     0.45385249    -2.49982208
H      12.83181831    -0.17846533    -2.41372171
Ni     24.00000000     0.00000000     0.00000000
Cl     26.37369432    -0.01947281    -0.02508935
Cl     21.62607345     0.01945476     0.02484130
O      24.02678000     2.08483318     0.33563060
H      23.27067418     2.47442756    -0.12738980
H      24.80756116     2.44575873    -0.10962805
O      23.97287105    -2.08495303    -0.33549361
H      23.19081246    -2.44522351     0.10805989
H      24.72762136    -2.47501974     0.12932682
O      24.01457718    -0.33584536     2.08509144
H      23.24858305     0.12010698     2.46383571
H      24.78580064     0.11645476     2.45730513
O      23.98437922     0.33590483    -2.08506463
H      24.74736947    -0.12381320    -2.46528960
H      23.21019282    -0.11265931    -2.45567692
Ni     36.00000000     0.00000000     0.00000000
Cl     36.92090252     1.39493298     1.52586055
Cl     36.87425948    -1.56866575    -1.37674191
Cl     34.34799874     1.10930058    -1.10194666
O      34.94641282    -1.21135781     1.26047956
H      34.34959648    -1.79089254     0.76398531
H      34.36392194    -0.69034627     1.83294347
Ni     48.00000000     0.00000000     0.00000000
Cl     49.38699462     1.18573415     1.38699526
Cl     49.38699626    -1.38699654    -1.18573084
Cl     46.66162672     1.33836918    -1.33836440
Cl     46.81426300    -1.38699351     1.38699387
Co      0.00000000   -12.00000000     0.00000000
O       2.10329631   -12.12061431     0.13280898
H       2.51564382   -12.41904799    -0.69043843
H       2.51628235   -11.26560542     0.32069526
O      -2.10396596   -11.87963854    -0.13091775
H      -2.52060663   -11.67769281     0.71913637
H      -2.50937228   -12.71199134    -0.41339805
O       0.07020999    -9.89641228    -0.03391434
H       0.32167024    -9.50333875     0.81413449
H      -0.77634985    -9.48519793    -0.26012054
O       0.01920639   -14.10921976    -0.03853203
H      -0.84230345   -14.49133635    -0.25918818
H       0.24959555   -14.49604360     0.81823053
O      -0.07716875   -11.99082515     2.10454773
H       0.76818470   -12.21038117     2.52184652
H      -0.32748718   -11.13463481     2.48027098
O      -0.01181810   -12.08287077    -2.10855784
H      -0.24841096   -11.23656578    -2.51428604
H       0.85285210   -12.30380174    -2.48329341
Co     12.00000000   -12.00000000     0.00000000
Cl     14.34774763   -11.91884535     0.13919844
O       9.87752988   -12.07461210    -0.19877757
H       9.47486014   -11.19639999    -0.24994507
H       9.43977161   -12.50264915     0.55033821
O      11.86453232    -9.86830697     0.17363896
H      11.42267760    -9.46971129    -0.58968573
H      12.76039483    -9.50084872     0.15922104
O      11.88646902   -14.12842679    -0.07285580
H      12.76108291   -14.50687770     0.09886537
H      11.65382851   -14.44469985    -0.95759948
O      11.81372378   -12.19770043     2.12764437
H      10.92789480   -11.96666500     2.44234328
H      12.40672930   -11.58799263     2.58900945
O      11.99446992   -11.77717919    -2.12611549
H      12.90493606   -11.83560907    -2.45041868
H      11.52979175   -12.50246181    -2.56769710
Co     24.00000000   -12.00000000     0.00000000
Cl     26.40888884   -12.00400196    -0.15176388
Cl     21.63617633   -12.04977669     0.08569435
O      24.07253329    -9.85069102    -0.03009276
H      24.95375050    -9.59570107    -0.34130237
H      23.46218972    -9.49616894    -0.69212817
O      24.04959998   -14.17510846     0.02921332
H      23.39863862   -14.53133585    -0.59212100
H      24.90864058   -14.44750087    -0.32566758
O      24.20379732   -12.03182093     2.14052694
H      23.71354973   -12.77636132     2.51708089
H      25.13356172   -12.22351188     2.33371456
O      23.90714366   -11.96763994    -2.17775107
H      23.23215824   -12.58871477    -2.48665787
H      24.74291777   -12.31949003    -2.51709418
Co     36.00000000   -12.00000000     0.00000000
Cl     37.17762727   -10.67075936     1.41591916
Cl     37.26639160   -13.42032491    -1.23972966
Cl     34.44003843   -10.87932028    -1.20784789
O      34.99526877   -13.27794849     1.29323777
H      34.40837323   -13.89059027     0.82644343
H      34.41583755   -12.80304123     1.90670193
Co     48.00000000   -12.00000000     0.00000000
Cl     49.32219541   -10.65864618     1.32877840
Cl     49.33966631   -13.33339782    -1.31963939
Cl     46.66988709   -10.68031361    -1.34280395
Cl     46.66841269   -13.32755287     1.33302492
Mn      0.00000000   -24.00000000     0.00000000
O       2.20250282   -24.12477968     0.04350940
H       2.60237685   -23.67153733     0.79897881
H       2.62554095   -23.73168173    -0.73261487
O      -2.19846438   -24.08708765     0.16433719
H      -2.59248332   -24.84967857    -0.28206638
H      -2.64475543   -23.31889874    -0.21849678
O      -0.14543906   -21.80076859    -0.08509649
H       0.24475711   -21.35762668     0.68120893
H       0.30056186   -21.41059898    -0.84992645
O      -0.06602464   -26.20195231    -0.12271234
H      -0.82093308   -26.59473230     0.33761665
H       0.70962278   -26.63307360     0.26248946
O       0.11004983   -23.86069558     2.19868916
H      -0.65602020   -24.24232734     2.64963547
H       0.87363663   -24.31697740     2.57930446
O       0.09717200   -23.92888725    -2.20302494
H      -0.36965434   -23.17330375    -2.58681043
H      -0.29155342   -24.70360341    -2.63263586
Mn     12.00000000   -24.00000000     0.00000000
Cl     14.38664320   -24.17224936     0.07725304
O       9.74640841   -23.87222733     0.10709568
H       9.38289485   -24.41483044     0.82088679
H       9.33490277   -24.22245491    -0.69513692
O      11.91568882   -21.76650871     0.11909598
H      12.66632485   -21.35470457    -0.33151456
H      11.13682982   -21.40819410    -0.32961775
O      11.64381909   -26.18262576    -0.33226909
H      10.87254940   -26.50753696     0.15346428
H      12.37814310   -26.72978419    -0.02040081
O      11.76257131   -24.19306731     2.21925155
H      11.04789707   -23.64416771     2.57184573
H      12.55306682   -23.89728732     2.69192305
O      11.66934860   -23.74554884    -2.20490910
H      12.15589944   -22.98254675    -2.54720909
H      12.00699064   -24.49614462    -2.71342257
Mn     24.00000000   -24.00000000     0.00000000
Cl     25.99881983   -23.36922484     1.22176115
Cl     22.26988173   -22.35038665     0.42995503
O      24.79115036   -23.00583969    -1.89968287
H      24.10675777   -22.43851049    -2.28189591
H      25.49827758   -22.39386285    -1.65121258
O      25.14669773   -25.87735542    -0.67296732
H      25.13960286   -25.96774504    -1.63618513
H      26.07450016   -25.71144405    -0.45237896
O      23.11797142   -25.41565681     1.53107799
H      23.19302209   -26.33472388     1.23855453
H      22.16523765   -25.26245970     1.60165916
O      22.51678406   -24.95362241    -1.49636556
H      22.91520070   -25.07833679    -2.36905465
H      21.83810546   -24.27751450    -1.63491564
Mn     36.00000000   -24.00000000     0.00000000
Cl     37.20032225   -22.85804604     1.67135749
Cl     37.25828709   -25.52858500    -1.27174301
Cl     34.44489893   -22.69616891    -1.19060659
O      34.67120193   -25.35454353     1.08553981
H      34.04735324   -24.89731367     1.66723733
H      35.14367311   -25.96712831     1.66706324
Mn     48.00000000   -24.00000000     0.00000000
Cl     49.39508394   -22.61848988     1.36781118
Cl     49.36851247   -25.40187922    -1.37410145
Cl     46.62497716   -22.61898358    -1.38869531
Cl     46.61150697   -25.36102073     1.39532233
