19
Coordinates from ORCA-job Mn_aq6_opt_run E -1609.445747811438
  Mn         -0.00127173612436      0.01583108029264     -0.00835216962884
  O           2.20123108548750     -0.10894860135847      0.03515723208903
  H           2.60110511551688      0.34429374746647      0.79062663575675
  H           2.62426921279047      0.28414935528380     -0.74096703582270
  O          -2.19973611506115     -0.07125657085126      0.15598502088854
  H          -2.59375505742501     -0.83384749089481     -0.29041854939568
  H          -2.64602716122260      0.69693234296382     -0.22684894952514
  O          -0.14671079627598      2.21506248693293     -0.09344866424249
  H           0.24348536913768      2.65820439750544      0.67285675617808
  H           0.29929012670448      2.60523210198388     -0.85827861815815
  O          -0.06729637228158     -2.18612123355021     -0.13106451159711
  H          -0.82220481652596     -2.57890122084585      0.32926447647953
  H           0.70835104461835     -2.61724251555101      0.25413729369747
  O           0.10877809606254      0.15513550368162      2.19033699115908
  H          -0.65729193382017     -0.22649625696233      2.64128330277915
  H           0.87236488979938     -0.30114631828644      2.57095229190581
  O           0.09590026315975      0.08694382842602     -2.21137711251161
  H          -0.37092607773895      0.84252733311887     -2.59516259621181
  H          -0.29282515680124     -0.68777232935514     -2.64098803383990
