7
Coordinates from ORCA-job MnCl3_aq1_opt_run E -2608.365231520295
  Mn          0.01566014332700      0.01290424713199     -0.06754073989509
  Cl          1.21598239137170      1.15485821046566      1.60381674878501
  Cl          1.27394723720758     -1.51568074956136     -1.33928374814107
  Cl         -1.53944093135481      1.31673534002427     -1.25814733258372
  O          -1.31313792974456     -1.34163928570260      1.01799906767947
  H          -1.93698662043607     -0.88440942673970      1.59969658784511
  H          -0.84066675037084     -1.95422406561825      1.59952249631027
