16
AcOH_dimer
C       0.000000     0.000000     0.000000
H      -0.510000     0.940000     0.190000
H      -0.530000    -0.900000     0.280000
H       0.180000    -0.070000    -1.070000
C       1.320000     0.030000     0.720000
O       1.430000     0.060000     1.930000
O       2.390000     0.020000    -0.110000
H       3.190000     0.040000     0.430000
C       6.070174     0.136254     3.338867
H       6.580174    -0.803746     3.148867
H       6.600174     1.036254     3.058867
H       5.890174     0.206254     4.408867
C       4.750174     0.106254     2.618867
O       4.640174     0.076254     1.408867
O       3.680174     0.116254     3.448867
H       2.880174     0.096254     2.908867
