30
MnCl2_H3Cit_aq2
Mn      0.00789563    -0.01755184     0.04024729
O       2.04764559    -2.68069556    -2.80083458
C       1.39885077    -2.29683635    -3.92229839
O       1.54594314    -2.84370870    -4.99368061
C       0.51268943    -1.10240204    -3.67041645
C      -0.56675421    -1.34412407    -2.59209124
O       0.00800316    -1.60360837    -1.30081305
C      -1.32850411    -0.02817316    -2.43526821
O      -1.19336122     0.71573893    -1.46614317
O      -2.11653414     0.23546831    -3.45107565
C      -1.52847617    -2.51510033    -2.88259786
C      -2.26374245    -2.46528610    -4.19946069
O      -1.73227277    -2.40228418    -5.29154572
O      -3.59521620    -2.55469763    -4.03218517
H       2.57752394    -3.47724034    -2.98577127
H       1.14833088    -0.27019984    -3.34142810
H       0.03285496    -0.82779502    -4.60931648
H       0.85157582    -2.08006065    -1.41714717
H      -2.56081920     1.09523656    -3.32290764
H      -2.23699506    -2.58187468    -2.05381114
H      -0.92640877    -3.43278371    -2.89242040
H      -4.01693075    -2.56377369    -4.91059932
O       1.12661842    -0.99326590     1.46892838
H       1.71616520    -1.63881264     1.05127821
H       1.72619287    -0.37354411     1.91104820
O      -0.10012199     1.68673255     1.19245563
H      -0.27364718     1.45977740     2.11830410
H      -0.86402669     2.22165937     0.92897823
Cl     -2.00502804    -0.92507794     1.05485789
Cl      1.99527090     0.89641476    -1.01800815
