17
Coordinates from ORCA-job CoCl1_aq5_opt_run E -2225.119266742130
  Co         -0.00149848065073     -0.03302738366947      0.05240407744288
  Cl          2.34624915374022      0.04812726264853      0.19160251362248
  O          -2.12396859842499     -0.10763948864269     -0.14637349571612
  H          -2.52663833593334      0.77057262475015     -0.19754098869458
  H          -2.56172687025708     -0.53567653219665      0.60274228823114
  O          -0.13696615867888      2.09866564374433      0.22604303504725
  H          -0.57882088432796      2.49726132546938     -0.53728164800284
  H           0.75889634829483      2.46612389317269      0.21162511586966
  O          -0.11502946048297     -2.16145417259513     -0.02045172181784
  H           0.75958442874142     -2.53990508061714      0.15126944803485
  H          -0.34766996776579     -2.47772723781154     -0.90519540723203
  O          -0.18777470093350     -0.23072781288501      2.18004844356271
  H          -1.07360368455308      0.00030761479393      2.49474736193536
  H           0.40523081711413      0.37897998142255      2.64141353182744
  O          -0.00702856038064      0.18979342860058     -2.07371141287014
  H           0.90343758252555      0.13136354553503     -2.39801460252080
  H          -0.47170672802718     -0.53548919171957     -2.51529301871940
