15
Coordinates from ORCA-job MnCl2_aq4_opt_run E -2377.314290228147
  Mn          0.08279058210953      0.43686464969181      0.53137264668999
  Cl          2.08161041242173      1.06763981302455      1.75313379172934
  Cl         -1.64732768321375      2.08647800123872      0.96132767837757
  O           0.87394094386746      1.43102496093452     -1.36831022458146
  H           0.18954835565893      1.99835415926544     -1.75052325850163
  H           1.58106816310310      2.04300179668214     -1.11983992852514
  O           1.22948830848186     -1.44049076551493     -0.14159466966348
  H           1.22239344542635     -1.53088038899988     -1.10481248133722
  H           2.15729074662201     -1.27457939699846      0.07899368334386
  O          -0.79923799640042     -0.97879215761949      2.06245064154629
  H          -0.72418732691480     -1.89785923182040      1.76992717492694
  H          -1.75197176797078     -0.82559504852414      2.13303180552600
  O          -1.40042535868127     -0.51675775720224     -0.96499291124240
  H          -1.00200871596528     -0.64147213589618     -1.83768200170086
  H          -2.07910395854468      0.15935015173855     -1.10354299658779
