17
Coordinates from ORCA-job MnCl1_aq5_opt_run E -1993.382348036267
  Mn          0.11645692804650     -0.01853364757497      0.01966343471726
  Cl          2.50310012992489     -0.19078300656753      0.09691647726170
  O          -2.13713466266099      0.10923902194479      0.12675911100384
  H          -2.50064821973279     -0.43336409175339      0.84055022856645
  H          -2.54864030253254     -0.24098855911855     -0.67547348388039
  O           0.03214574842142      2.21495764433615      0.13875941969203
  H           0.78278177335494      2.62676178398733     -0.31185112278342
  H          -0.74671325193842      2.57327225160896     -0.30995431124174
  O          -0.23972397857098     -2.20115940343976     -0.31260565309934
  H          -1.01099367644812     -2.52607060702611      0.17312771386403
  H           0.49460003103601     -2.74831784158830     -0.00073737934175
  O          -0.12097175749950     -0.21160095699527      2.23891498028750
  H          -0.83564600034585      0.33729864517039      2.59150916604195
  H           0.66952375214145      0.08417903521257      2.71158648184454
  O          -0.21419447216570      0.23591751302704     -2.18524566536709
  H           0.27235636844817      0.99891960187010     -2.52754565143660
  H           0.12344757052151     -0.51467826309342     -2.69375913612896
