7
Coordinates from ORCA-job NiCl3_aq1_opt_run E -2965.640558719962
  Ni          0.17910695613964     -0.02659007486358      0.00551128803985
  Cl          1.10000947230607      1.36834290078122      1.53137184056792
  Cl          1.05336643521372     -1.59525582619480     -1.37123062451322
  Cl         -1.47289430462561      1.08271050419544     -1.09643536837259
  O          -0.87448022729132     -1.23794788373399      1.26599085274660
  H          -1.47129656369396     -1.81748261643705      0.76949659313506
  H          -1.45697110804854     -0.71693634374723      1.83845475839638
