23
H3Cit_Cl2
O      -3.351294    -0.308027    -0.301225
C      -2.413904     0.338988     0.415275
O      -2.485300     1.524661     0.683667
C      -1.286240    -0.566963     0.838683
C      -0.033479    -0.356441    -0.042321
O      -0.442301    -0.573216    -1.383853
C       0.978795    -1.409384     0.443098
O       1.661621    -1.254621     1.437648
O       0.977630    -2.523112    -0.297956
C       0.568075     1.039587     0.146329
C       1.871538     1.183667    -0.583825
O       2.363802     0.319157    -1.291898
O       2.441935     2.380602    -0.380516
H      -4.043171     0.330169    -0.551912
H      -1.599009    -1.611536     0.762852
H      -1.029734    -0.336370     1.876053
H       0.344231    -0.505322    -1.946945
H       1.603429    -3.155102     0.099722
H      -0.125869     1.794660    -0.239040
H       0.727956     1.266379     1.205343
H       3.271291     2.422222    -0.889179
Cl     -5.499261     1.673285    -1.079495
Cl      2.920210    -4.484910     0.936500
