19
Co_aq6 charge=+2 mult=4 Oh imag=142cm-1
  Co         -0.00079679081665     -0.04837778329201     -0.05519968589731
  O           2.10249951899878     -0.16899208927193      0.07760929193871
  H           2.51484702983705     -0.46742577234294     -0.74563811371083
  H           2.51548555734483      0.68601679990216      0.26549557097047
  O          -2.10476274843408      0.07198368005643     -0.18611743892901
  H          -2.52140342377149      0.27392940781870      0.66393668537714
  H          -2.51016906640841     -0.76036912095430     -0.46859773539159
  O           0.06941320416738      2.05520993421949     -0.08911402851538
  H           0.32087345282331      2.44828347085791      0.75893480478317
  H          -0.77714663692810      2.46642428700180     -0.31532023069929
  O           0.01840960117535     -2.15759754146918     -0.09373172004580
  H          -0.84310024120848     -2.53971413794909     -0.31438786419698
  H           0.24879876247854     -2.54442138013086      0.76303084389583
  O          -0.07796553914119     -0.03920293817224      2.04934804341037
  H           0.76738790886589     -0.25875895659197      2.46664683768601
  H          -0.32828397268843      0.81698740474274      2.42507129355681
  O          -0.01261488987564     -0.13124854829690     -2.16375752555152
  H          -0.24920775557026      0.71505644064601     -2.56948572832440
  H           0.85205530915158     -0.35217952677384     -2.53849310035640
