15
CoCl2_aq4 charge=+0 mult=4 Oh freq-OK
  Co         -0.12454113220407      0.13749917345424      0.14873557437051
  Cl          2.28434770474246      0.13349721266793     -0.00302830068577
  Cl         -2.48836480663739      0.08772248458029      0.23442992027127
  O          -0.05200784085548      2.28680815079560      0.11864280959479
  H           0.82920937078737      2.54179810383960     -0.19256679793010
  H          -0.66235140798632      2.64133023476212     -0.54339259278301
  O          -0.07494115150782     -2.03760928567076      0.17794889444949
  H          -0.72590250734210     -2.39383667830558     -0.44338542912524
  H           0.78409944787817     -2.31000169276070     -0.17693201005857
  O           0.07925618555154      0.10567824102981      2.28926251081761
  H          -0.41099139801918     -0.63886214431609      2.66581646106544
  H           1.00902058860429     -0.08601270498560      2.48245013712317
  O          -0.21739747006331      0.16985923013597     -2.02901549179089
  H          -0.89238289119549     -0.45121559996706     -2.33792229768482
  H           0.61837663824731     -0.18199085525977     -2.36835860763390
