7
CoCl3_aq1 charge=-1 mult=4 Td freq-OK
  Co          0.04338920313941      0.00216378909559      0.01225925292906
  Cl          1.22101646964387      1.33140442447818      1.42817841294230
  Cl          1.30978080768659     -1.41816112490976     -1.22747040809603
  Cl         -1.51657236265487      1.12284350531312     -1.19558863589728
  O          -0.96134202630021     -1.27578469916445      1.30549702289508
  H          -1.54823757143571     -1.88842648081191      0.83870268048490
  H          -1.54077325007907     -0.80087744400076      1.91896118474197
