19
Ni_aq6 charge=+2 mult=3 Oh freq-OK
  Ni          0.00095857815042     -0.00694664632374      0.00910287427392
  O           2.07538265401223     -0.07990609729110     -0.05331173628352
  H           2.46519331032421      0.54769533137438      0.57292928969096
  H           2.39820987732128     -0.94596851572892      0.23561540062565
  O          -2.07370800698316      0.06539187970246      0.07137212765926
  H          -2.39683847632684      0.93142084282920     -0.21730582981770
  H          -2.46317768675922     -0.56213364036371     -0.55515151796162
  O           0.11963689871894      2.06424675059163      0.10765477241207
  H          -0.33535356433019      2.47251097853482     -0.64341347782155
  H          -0.34677116118499      2.39935407073457      0.88755121133061
  O          -0.11739187458303     -2.07803157171741     -0.08977727961375
  H           0.34951492862760     -2.41282762930604     -0.86951159786640
  H           0.33722261204917     -2.48640441928416      0.66145920286662
  O           0.03159694194254     -0.13028732004388      2.08172046799055
  H           0.81473856534454      0.31360559922419      2.43896556044332
  H          -0.71743330530081      0.34647490379391      2.46838987493259
  O          -0.03006740120198      0.11623233785152     -2.06354912112398
  H          -0.81105794340853     -0.33149836755686     -2.42072671028420
  H           0.72127345358783     -0.35674961702088     -2.45035503145282
