17
NiCl1_aq5 charge=+1 mult=3 Oh imag=28cm-1
  Ni         -0.05425110146482      0.04190594382244     -0.00379726797031
  Cl          2.29362324597267     -0.04512493828166      0.01132018879989
  O          -2.14834488641250      0.15754910802389     -0.01530278781562
  H          -2.51740177697243     -0.25230594882804      0.78038537975709
  H          -2.51357140911080     -0.36376556086632     -0.74490963998313
  O          -0.02666222567948      2.11982668202806     -0.27440979562946
  H          -0.61678482489413      2.55557016917236      0.35766016714926
  H           0.85858964785533      2.43933422160078     -0.04437635419960
  O          -0.20983274947793     -2.03327186659573      0.26545223161602
  H          -0.75021659712076     -2.42361666494727     -0.43726534337012
  H           0.67022974224138     -2.41792519656582      0.13753075682330
  O          -0.12420493032086      0.30965786486533      2.07463824966595
  H          -0.64125333095562     -0.39629999832926      2.48993896664452
  H           0.77644812817163      0.17706977020902      2.40713503822153
  O          -0.12723057404323     -0.22780263125061     -2.08286146605420
  H          -0.61440508344107      0.49575843185898     -2.50361934852528
  H           0.77756720565263     -0.13655938591613     -2.41751897512985
