15
NiCl2_aq4 charge=+0 mult=3 Oh freq-OK
  Ni         -0.00302945982762      0.00378139783300      0.00348529763904
  Cl          2.37066485894245     -0.01569141374370     -0.02160405496145
  Cl         -2.37695600742123      0.02323615649088      0.02832659822727
  O           0.02375054332287      2.08861457442185      0.33911590169347
  H          -0.73235528183380      2.47820895984624     -0.12390450317468
  H           0.80453170119597      2.44954013181877     -0.10614275674175
  O          -0.03015840571890     -2.08117163159862     -0.33200831171083
  H          -0.81221700192394     -2.44144210927306      0.11154518405413
  H           0.72459190209488     -2.47123834534060      0.13281211509583
  O           0.01154771784892     -0.33206396451923      2.08857673874617
  H          -0.75444640765172      0.12388837292235      2.46732100290978
  H           0.78277117669952      0.12023616241790      2.46079042802463
  O          -0.01865024459947      0.33968622302836     -2.08157932812927
  H           0.74434001346641     -0.12003180387544     -2.46180430328450
  H          -0.79283664459433     -0.10887791042869     -2.45219161838781
