19
Ni_aq6
Ni      0.00000000     0.00000000     0.00000000
O       2.06000000     0.00000000     0.00000000
H       2.65385076     0.00000000    -0.76696889
H       2.65385076     0.00000000     0.76696889
O      -2.06000000     0.00000000     0.00000000
H      -2.65385076     0.00000000     0.76696889
H      -2.65385076     0.00000000    -0.76696889
O       0.00000000     2.06000000     0.00000000
H       0.00000000     2.65385076     0.76696889
H       0.00000000     2.65385076    -0.76696889
O       0.00000000    -2.06000000     0.00000000
H       0.00000000    -2.65385076    -0.76696889
H       0.00000000    -2.65385076     0.76696889
O       0.00000000     0.00000000     2.06000000
H       0.00000000    -0.76696889     2.65385076
H       0.00000000     0.76696889     2.65385076
O       0.00000000     0.00000000    -2.06000000
H       0.00000000     0.76696889    -2.65385076
H       0.00000000    -0.76696889    -2.65385076
