15
NiCl2_aq4
Ni      0.00000000     0.00000000     0.00000000
Cl      2.40000000     0.00000000     0.00000000
Cl     -2.40000000     0.00000000     0.00000000
O       0.00000000     2.06000000     0.00000000
H       0.00000000     2.65385076     0.76696889
H       0.00000000     2.65385076    -0.76696889
O       0.00000000    -2.06000000     0.00000000
H       0.00000000    -2.65385076    -0.76696889
H       0.00000000    -2.65385076     0.76696889
O       0.00000000     0.00000000     2.06000000
H       0.00000000    -0.76696889     2.65385076
H       0.00000000     0.76696889     2.65385076
O       0.00000000     0.00000000    -2.06000000
H       0.00000000     0.76696889    -2.65385076
H       0.00000000    -0.76696889    -2.65385076
