19
Mn_aq6
Mn     -0.01740998     0.00967750    -0.00578351
O       2.17391265    -0.03561051     0.00897113
H       2.78953746    -0.55769143     0.50469562
H       2.81326964     0.55853332    -0.57218942
O      -2.14084783    -0.02896426    -0.02948712
H      -2.80540605     0.68630906     0.22677267
H      -2.77166369    -0.75993490    -0.22356891
O      -0.03318939     2.19059055    -0.03732370
H       0.04340010     2.74943428     0.79031983
H      -0.05324781     2.80697151    -0.80285244
O       0.02134461    -2.14252037    -0.00154520
H      -0.02325908    -2.79212931     0.78306151
H       0.03883791    -2.78587619    -0.73476498
O       0.03913523    -0.02791958     2.14630945
H      -0.13085485     0.75654050     2.75968270
H       0.10888056    -0.79464669     2.79731243
O       0.02508451    -0.03898893    -2.21081518
H      -0.31173000     0.68687277    -2.75288061
H       0.32848686    -0.70760068    -2.78272343
