17
MnCl1_aq5
Mn     -0.00185251    -0.02310686     0.01550896
Cl      2.49740793     0.01864508    -0.03987343
O      -2.20949557     0.02807735     0.00178900
H      -2.80603069     0.70053940    -0.31197841
H      -2.78526132    -0.67924455     0.28958058
O       0.01330616     2.18307050     0.03212880
H       0.51720820     2.74669168    -0.57122795
H      -0.47954024     2.78152335     0.61202192
O       0.00795452    -2.19535995    -0.00537763
H      -0.53876818    -2.74893829    -0.53169820
H       0.57279019    -2.81375440     0.58052230
O      -0.00398191     0.01516175     2.20667429
H       0.40674198     0.64887010     2.75777303
H      -0.43945824    -0.61944166     2.74926403
O      -0.00048617    -0.02654899    -2.17524624
H      -0.23263325    -0.76418271    -2.78983670
H       0.21193022     0.69464628    -2.76942123
