15
MnCl2_aq4
Mn      0.03734873     0.00282111     0.02081890
Cl      2.46781785     0.01794988    -0.00378150
Cl     -2.53491025     0.00831050     0.00508009
O       0.03060312     2.16310776    -0.03743318
H      -0.68553984     2.77848424    -0.29316944
H       0.72832969     2.79027204     0.28856409
O      -0.01121108    -2.18758716    -0.02302025
H      -0.65759202    -2.75997328    -0.46966403
H       0.61505395    -2.77069110     0.41413637
O      -0.00151537     0.03458015     2.21390514
H      -0.77260643     0.15083106     2.77902902
H       0.76298788    -0.16307826     2.80685509
O       0.00393350    -0.02827238    -2.15413420
H      -0.51232024     0.54794183    -2.80935220
H       0.50425815    -0.59025062    -2.74648171
