13
CoCl3_aq3_fac
Co     -0.01320803     0.01964796     0.02605983
Cl      2.42416286    -0.03581636     0.00743666
O      -2.17056624     0.02720009    -0.01221613
H      -2.79199915     0.50393743    -0.58463647
H      -2.72924588    -0.52712016     0.52338741
Cl      0.00374593     2.39216889    -0.00828578
O       0.02380727    -2.13022842     0.03684751
H       0.43780343    -2.72047868     0.65039237
H      -0.39661741    -2.73185740    -0.68131339
Cl     -0.00108899     0.02930953     2.37907274
O       0.03474194     0.02666653    -2.16855774
H      -0.61254259     0.43812918    -2.79119278
H       0.66581989    -0.45221452    -2.78676474
