13
CoCl3_aq3_mer
Co      0.02539601     0.00472930     0.00241600
Cl      2.36369697     0.02328731    -0.00659446
Cl     -2.36499964     0.02364368    -0.02123647
Cl      0.02496632     2.39953987     0.02658712
O       0.01877327    -2.15423618     0.03174001
H      -0.78854784    -2.75762130    -0.06881213
H       0.77239972    -2.75173712     0.07216669
O       0.00265827     0.00571450     2.19623169
H       0.33853208    -0.73266025     2.77578924
H      -0.34295918     0.66254956     2.74383711
O      -0.01197723    -0.00827418    -2.13059043
H       0.79672569     0.05882142    -2.78776208
H      -0.72706480    -0.08957575    -2.72401993
