13
MnCl3_aq3_mer
Mn      0.02349809    -0.03091562     0.00885731
Cl      2.43324517    -0.03834838    -0.01210390
Cl     -2.41881657     0.01496864     0.03173167
Cl      0.00852392     2.42710453     0.00057907
O      -0.01171818    -2.27811759     0.00863952
H       0.76710964    -2.86864168    -0.17159529
H      -0.71052289    -2.84988025     0.14681576
O      -0.03111501     0.03522411     2.28439287
H      -0.43830150     0.59572620     2.88270131
H       0.43931203    -0.58272322     2.84206531
O       0.02001625     0.01797992    -2.29521483
H       0.41457409     0.64220728    -2.89620577
H      -0.44990040    -0.61133304    -2.87290591
