13
MnCl3_aq3_fac
Mn      0.01454765     0.02672629    -0.00909995
Cl      2.40807118     0.02151459     0.03545808
O      -2.28184837     0.00862658     0.03316001
H      -2.86784564     0.29822407    -0.68465470
H      -2.90466705    -0.35449807     0.66556608
Cl      0.02085798     2.43035410     0.01311683
O       0.03397174    -2.26400213     0.01991784
H      -0.04834166    -2.89548697     0.77741522
H       0.03035796    -2.88710246    -0.78092870
Cl     -0.01263319    -0.00989937     2.45962155
O      -0.03215621    -0.02556535    -2.24555025
H      -0.69145932     0.23667873    -2.87432129
H       0.72914474    -0.23695925    -2.83435343
