13
NiCl3_aq3_mer
Ni      0.01161286     0.00262359    -0.01875291
Cl      2.33099359    -0.01382127     0.01872799
Cl     -2.38256298    -0.01885817     0.03598412
Cl     -0.03465948     2.35903597     0.00941220
O      -0.01980720    -2.08293782     0.02540044
H       0.15022774    -2.69307957    -0.71358670
H      -0.16054259    -2.72007743     0.76427200
O       0.03034508    -0.03276483     2.07317999
H       0.44563185     0.58612575     2.69519554
H      -0.45657652    -0.64147824     2.72850208
O       0.03211287    -0.03409674    -2.12363851
H      -0.00655967    -0.80269598    -2.72666137
H       0.00524022     0.77957914    -2.71288993
